9863.0
9726.0
9251.0
9506.0
9201.0
10059.0
9304.0
10676.0
8697.0
10022.0
9428.0
9117.0
9135.0
8929.0
10355.0
9490.0
9320.0
9512.0
9661.0
10053.0
9126.0
9527.0
9317.0
9554.0
9285.0
9194.0
9712.0
9933.0
10184.0
10870.0
